results-heuristic-start/lp/BA_06_deadline.lp
\ Model JobShopModel
\ LP format - for model browsing. Use MPS format to capture full model detail.
Minimize
  0 x[0,0,0,0] + 0 x[0,0,0,2] + 0 x[0,0,1,1] + 0 x[0,1,0,1] + 0 x[0,1,0,2]
   + 0 x[0,1,1,1] + 0 x[0,2,0,0] + 0 x[0,2,0,1] + 0 x[0,2,0,2]
   + 0 x[0,2,1,0] + 0 x[0,2,1,1] + 0 x[0,2,1,2] + 0 x[0,2,2,0]
   + 0 x[0,2,2,1] + 0 x[0,2,2,2] + 0 x[1,0,0,0] + 0 x[1,0,0,1]
   + 0 x[1,0,0,2] + 0 x[1,0,1,0] + 0 x[1,0,1,1] + 0 x[1,1,0,0]
   + 0 x[1,1,0,1] + 0 x[1,1,0,2] + 0 x[1,1,1,0] + 0 x[1,1,1,1]
   + 0 x[1,1,1,2] + 0 x[1,1,2,0] + 0 x[1,1,2,1] + 0 x[1,1,2,2]
   + 0 x[1,2,0,0] + 0 x[1,2,0,1] + 0 x[1,2,0,2] + 0 x[1,2,1,1]
   + 0 x[1,2,1,2] + 0 x[2,0,0,0] + 0 x[2,0,0,1] + 0 x[2,0,0,2]
   + 0 x[2,0,1,0] + 0 x[2,0,1,1] + 0 x[2,0,1,2] + 0 x[2,0,2,0]
   + 0 x[2,1,0,0] + 0 x[2,1,0,1] + 0 x[2,1,0,2] + 0 x[2,1,1,0]
   + 0 x[2,1,1,1] + 0 x[2,1,1,2] + 0 x[2,1,2,1] + 0 x[2,2,0,0]
   + 0 x[2,2,0,1] + 0 x[2,2,0,2] + 0 x[2,2,1,0] + 0 x[2,2,1,1]
   + 0 x[2,2,1,2] + 0 x[2,2,2,2] + Z_FO
Subject To
 assignment_job0_stage0_constraint: y[0,0,1] = 1
 assignment_job0_stage1_constraint: y[0,1,1] = 1
 assignment_job0_stage2_constraint: y[0,2,0] = 1
 assignment_job1_stage0_constraint: y[1,0,1] = 1
 assignment_job1_stage1_constraint: y[1,1,2] = 1
 assignment_job1_stage2_constraint: y[1,2,1] = 1
 assignment_job2_stage0_constraint: y[2,0,1] = 1
 assignment_job2_stage1_constraint: y[2,1,1] = 1
 assignment_job2_stage2_constraint: y[2,2,1] = 1
 start_time_job0_stage0_machine1_constraint1: - 1e+06 y[0,0,1] + s[0,0,1]
   <= 0
 start_time_job0_stage1_machine1_constraint1: - 1e+06 y[0,1,1] + s[0,1,1]
   <= 0
 start_time_job0_stage2_machine0_constraint1: - 1e+06 y[0,2,0] + s[0,2,0]
   <= 0
 start_time_job1_stage0_machine1_constraint1: - 1e+06 y[1,0,1] + s[1,0,1]
   <= 0
 start_time_job1_stage1_machine2_constraint1: - 1e+06 y[1,1,2] + s[1,1,2]
   <= 0
 start_time_job1_stage2_machine1_constraint1: - 1e+06 y[1,2,1] + s[1,2,1]
   <= 0
 start_time_job2_stage0_machine1_constraint1: - 1e+06 y[2,0,1] + s[2,0,1]
   <= 0
 start_time_job2_stage1_machine1_constraint1: - 1e+06 y[2,1,1] + s[2,1,1]
   <= 0
 start_time_job2_stage2_machine1_constraint1: - 1e+06 y[2,2,1] + s[2,2,1]
   <= 0
 precedence_between_0,1_to_0,0_if_x_[j,l,h,z,i]=1: - 1e+06 y[0,0,1]
   - 1e+06 y[0,1,1] - 1e+06 x[0,0,0,1] + s[0,0,1] - s[0,1,1]
   >= -2.999985e+06
 precedence_between_0,0_to_0,1_if_x_[j,l,h,z,i]=0: - 1e+06 y[0,0,1]
   - 1e+06 y[0,1,1] + 1e+06 x[0,0,0,1] - s[0,0,1] + s[0,1,1]
   >= -1.999992e+06
 precedence_between_1,0_to_0,0_if_x_[j,l,h,z,i]=1: - 1e+06 y[0,0,1]
   - 1e+06 y[1,0,1] - 1e+06 x[0,0,1,0] + s[0,0,1] - s[1,0,1]
   >= -2.999984e+06
 precedence_between_0,0_to_1,0_if_x_[j,l,h,z,i]=0: - 1e+06 y[0,0,1]
   - 1e+06 y[1,0,1] + 1e+06 x[0,0,1,0] - s[0,0,1] + s[1,0,1]
   >= -1.999987e+06
 precedence_between_1,2_to_0,0_if_x_[j,l,h,z,i]=1: - 1e+06 y[0,0,1]
   - 1e+06 y[1,2,1] - 1e+06 x[0,0,1,2] + s[0,0,1] - s[1,2,1]
   >= -2.999986e+06
 precedence_between_0,0_to_1,2_if_x_[j,l,h,z,i]=0: - 1e+06 y[0,0,1]
   - 1e+06 y[1,2,1] + 1e+06 x[0,0,1,2] - s[0,0,1] + s[1,2,1]
   >= -1.999986e+06
 precedence_between_2,0_to_0,0_if_x_[j,l,h,z,i]=1: - 1e+06 y[0,0,1]
   - 1e+06 y[2,0,1] - 1e+06 x[0,0,2,0] + s[0,0,1] - s[2,0,1]
   >= -2.999992e+06
 precedence_between_0,0_to_2,0_if_x_[j,l,h,z,i]=0: - 1e+06 y[0,0,1]
   - 1e+06 y[2,0,1] + 1e+06 x[0,0,2,0] - s[0,0,1] + s[2,0,1]
   >= -1.999987e+06
 precedence_between_2,1_to_0,0_if_x_[j,l,h,z,i]=1: - 1e+06 y[0,0,1]
   - 1e+06 y[2,1,1] - 1e+06 x[0,0,2,1] + s[0,0,1] - s[2,1,1]
   >= -2.999995e+06
 precedence_between_0,0_to_2,1_if_x_[j,l,h,z,i]=0: - 1e+06 y[0,0,1]
   - 1e+06 y[2,1,1] + 1e+06 x[0,0,2,1] - s[0,0,1] + s[2,1,1]
   >= -1.999984e+06
 precedence_between_2,2_to_0,0_if_x_[j,l,h,z,i]=1: - 1e+06 y[0,0,1]
   - 1e+06 y[2,2,1] - 1e+06 x[0,0,2,2] + s[0,0,1] - s[2,2,1]
   >= -2.999988e+06
 precedence_between_0,0_to_2,2_if_x_[j,l,h,z,i]=0: - 1e+06 y[0,0,1]
   - 1e+06 y[2,2,1] + 1e+06 x[0,0,2,2] - s[0,0,1] + s[2,2,1]
   >= -1.999988e+06
 precedence_between_0,0_to_0,1_if_x_[j,l,h,z,i]=1: - 1e+06 y[0,0,1]
   - 1e+06 y[0,1,1] - 1e+06 x[0,1,0,0] - s[0,0,1] + s[0,1,1]
   >= -2.999992e+06
 precedence_between_0,1_to_0,0_if_x_[j,l,h,z,i]=0: - 1e+06 y[0,0,1]
   - 1e+06 y[0,1,1] + 1e+06 x[0,1,0,0] + s[0,0,1] - s[0,1,1]
   >= -1.999985e+06
 precedence_between_1,0_to_0,1_if_x_[j,l,h,z,i]=1: - 1e+06 y[0,1,1]
   - 1e+06 y[1,0,1] - 1e+06 x[0,1,1,0] + s[0,1,1] - s[1,0,1]
   >= -2.999994e+06
 precedence_between_0,1_to_1,0_if_x_[j,l,h,z,i]=0: - 1e+06 y[0,1,1]
   - 1e+06 y[1,0,1] + 1e+06 x[0,1,1,0] - s[0,1,1] + s[1,0,1]
   >= -1.999993e+06
 precedence_between_1,2_to_0,1_if_x_[j,l,h,z,i]=1: - 1e+06 y[0,1,1]
   - 1e+06 y[1,2,1] - 1e+06 x[0,1,1,2] + s[0,1,1] - s[1,2,1]
   >= -2.999986e+06
 precedence_between_0,1_to_1,2_if_x_[j,l,h,z,i]=0: - 1e+06 y[0,1,1]
   - 1e+06 y[1,2,1] + 1e+06 x[0,1,1,2] - s[0,1,1] + s[1,2,1]
   >= -1.999995e+06
 precedence_between_2,0_to_0,1_if_x_[j,l,h,z,i]=1: - 1e+06 y[0,1,1]
   - 1e+06 y[2,0,1] - 1e+06 x[0,1,2,0] + s[0,1,1] - s[2,0,1]
   >= -2.999984e+06
 precedence_between_0,1_to_2,0_if_x_[j,l,h,z,i]=0: - 1e+06 y[0,1,1]
   - 1e+06 y[2,0,1] + 1e+06 x[0,1,2,0] - s[0,1,1] + s[2,0,1]
   >= -1.999981e+06
 precedence_between_2,1_to_0,1_if_x_[j,l,h,z,i]=1: - 1e+06 y[0,1,1]
   - 1e+06 y[2,1,1] - 1e+06 x[0,1,2,1] + s[0,1,1] - s[2,1,1]
   >= -2.999993e+06
 precedence_between_0,1_to_2,1_if_x_[j,l,h,z,i]=0: - 1e+06 y[0,1,1]
   - 1e+06 y[2,1,1] + 1e+06 x[0,1,2,1] - s[0,1,1] + s[2,1,1]
   >= -1.999993e+06
 precedence_between_2,2_to_0,1_if_x_[j,l,h,z,i]=1: - 1e+06 y[0,1,1]
   - 1e+06 y[2,2,1] - 1e+06 x[0,1,2,2] + s[0,1,1] - s[2,2,1]
   >= -2.999981e+06
 precedence_between_0,1_to_2,2_if_x_[j,l,h,z,i]=0: - 1e+06 y[0,1,1]
   - 1e+06 y[2,2,1] + 1e+06 x[0,1,2,2] - s[0,1,1] + s[2,2,1]
   >= -1.999985e+06
 precedence_between_1,2_to_1,0_if_x_[j,l,h,z,i]=1: - 1e+06 y[1,0,1]
   - 1e+06 y[1,2,1] - 1e+06 x[1,0,1,2] + s[1,0,1] - s[1,2,1]
   >= -2.999994e+06
 precedence_between_1,0_to_1,2_if_x_[j,l,h,z,i]=0: - 1e+06 y[1,0,1]
   - 1e+06 y[1,2,1] + 1e+06 x[1,0,1,2] - s[1,0,1] + s[1,2,1]
   >= -1.999992e+06
 precedence_between_2,0_to_1,0_if_x_[j,l,h,z,i]=1: - 1e+06 y[1,0,1]
   - 1e+06 y[2,0,1] - 1e+06 x[1,0,2,0] + s[1,0,1] - s[2,0,1]
   >= -2.999986e+06
 precedence_between_1,0_to_2,0_if_x_[j,l,h,z,i]=0: - 1e+06 y[1,0,1]
   - 1e+06 y[2,0,1] + 1e+06 x[1,0,2,0] - s[1,0,1] + s[2,0,1]
   >= -1.999981e+06
 precedence_between_2,1_to_1,0_if_x_[j,l,h,z,i]=1: - 1e+06 y[1,0,1]
   - 1e+06 y[2,1,1] - 1e+06 x[1,0,2,1] + s[1,0,1] - s[2,1,1]
   >= -2.999995e+06
 precedence_between_1,0_to_2,1_if_x_[j,l,h,z,i]=0: - 1e+06 y[1,0,1]
   - 1e+06 y[2,1,1] + 1e+06 x[1,0,2,1] - s[1,0,1] + s[2,1,1]
   >= -1.999994e+06
 precedence_between_2,2_to_1,0_if_x_[j,l,h,z,i]=1: - 1e+06 y[1,0,1]
   - 1e+06 y[2,2,1] - 1e+06 x[1,0,2,2] + s[1,0,1] - s[2,2,1]
   >= -2.999981e+06
 precedence_between_1,0_to_2,2_if_x_[j,l,h,z,i]=0: - 1e+06 y[1,0,1]
   - 1e+06 y[2,2,1] + 1e+06 x[1,0,2,2] - s[1,0,1] + s[2,2,1]
   >= -1.999984e+06
 precedence_between_1,0_to_1,2_if_x_[j,l,h,z,i]=1: - 1e+06 y[1,0,1]
   - 1e+06 y[1,2,1] - 1e+06 x[1,2,1,0] - s[1,0,1] + s[1,2,1]
   >= -2.999992e+06
 precedence_between_1,2_to_1,0_if_x_[j,l,h,z,i]=0: - 1e+06 y[1,0,1]
   - 1e+06 y[1,2,1] + 1e+06 x[1,2,1,0] + s[1,0,1] - s[1,2,1]
   >= -1.999994e+06
 precedence_between_2,0_to_1,2_if_x_[j,l,h,z,i]=1: - 1e+06 y[1,2,1]
   - 1e+06 y[2,0,1] - 1e+06 x[1,2,2,0] + s[1,2,1] - s[2,0,1]
   >= -2.99999e+06
 precedence_between_1,2_to_2,0_if_x_[j,l,h,z,i]=0: - 1e+06 y[1,2,1]
   - 1e+06 y[2,0,1] + 1e+06 x[1,2,2,0] - s[1,2,1] + s[2,0,1]
   >= -1.99999e+06
 precedence_between_2,1_to_1,2_if_x_[j,l,h,z,i]=1: - 1e+06 y[1,2,1]
   - 1e+06 y[2,1,1] - 1e+06 x[1,2,2,1] + s[1,2,1] - s[2,1,1]
   >= -2.999977e+06
 precedence_between_1,2_to_2,1_if_x_[j,l,h,z,i]=0: - 1e+06 y[1,2,1]
   - 1e+06 y[2,1,1] + 1e+06 x[1,2,2,1] - s[1,2,1] + s[2,1,1]
   >= -1.999978e+06
 precedence_between_2,2_to_1,2_if_x_[j,l,h,z,i]=1: - 1e+06 y[1,2,1]
   - 1e+06 y[2,2,1] - 1e+06 x[1,2,2,2] + s[1,2,1] - s[2,2,1]
   >= -2.999984e+06
 precedence_between_1,2_to_2,2_if_x_[j,l,h,z,i]=0: - 1e+06 y[1,2,1]
   - 1e+06 y[2,2,1] + 1e+06 x[1,2,2,2] - s[1,2,1] + s[2,2,1]
   >= -1.999989e+06
 precedence_between_2,1_to_2,0_if_x_[j,l,h,z,i]=1: - 1e+06 y[2,0,1]
   - 1e+06 y[2,1,1] - 1e+06 x[2,0,2,1] + s[2,0,1] - s[2,1,1]
   >= -2.999981e+06
 precedence_between_2,0_to_2,1_if_x_[j,l,h,z,i]=0: - 1e+06 y[2,0,1]
   - 1e+06 y[2,1,1] + 1e+06 x[2,0,2,1] - s[2,0,1] + s[2,1,1]
   >= -1.999992e+06
 precedence_between_2,2_to_2,0_if_x_[j,l,h,z,i]=1: - 1e+06 y[2,0,1]
   - 1e+06 y[2,2,1] - 1e+06 x[2,0,2,2] + s[2,0,1] - s[2,2,1]
   >= -2.99999e+06
 precedence_between_2,0_to_2,2_if_x_[j,l,h,z,i]=0: - 1e+06 y[2,0,1]
   - 1e+06 y[2,2,1] + 1e+06 x[2,0,2,2] - s[2,0,1] + s[2,2,1]
   >= -1.999987e+06
 precedence_between_2,0_to_2,1_if_x_[j,l,h,z,i]=1: - 1e+06 y[2,0,1]
   - 1e+06 y[2,1,1] - 1e+06 x[2,1,2,0] - s[2,0,1] + s[2,1,1]
   >= -2.999992e+06
 precedence_between_2,1_to_2,0_if_x_[j,l,h,z,i]=0: - 1e+06 y[2,0,1]
   - 1e+06 y[2,1,1] + 1e+06 x[2,1,2,0] + s[2,0,1] - s[2,1,1]
   >= -1.999981e+06
 precedence_between_2,2_to_2,1_if_x_[j,l,h,z,i]=1: - 1e+06 y[2,1,1]
   - 1e+06 y[2,2,1] - 1e+06 x[2,1,2,2] + s[2,1,1] - s[2,2,1]
   >= -2.999984e+06
 precedence_between_2,1_to_2,2_if_x_[j,l,h,z,i]=0: - 1e+06 y[2,1,1]
   - 1e+06 y[2,2,1] + 1e+06 x[2,1,2,2] - s[2,1,1] + s[2,2,1]
   >= -1.999987e+06
 precedence_between_2,0_to_2,2_if_x_[j,l,h,z,i]=1: - 1e+06 y[2,0,1]
   - 1e+06 y[2,2,1] - 1e+06 x[2,2,2,0] - s[2,0,1] + s[2,2,1]
   >= -2.999987e+06
 precedence_between_2,2_to_2,0_if_x_[j,l,h,z,i]=0: - 1e+06 y[2,0,1]
   - 1e+06 y[2,2,1] + 1e+06 x[2,2,2,0] + s[2,0,1] - s[2,2,1]
   >= -1.99999e+06
 precedence_between_2,1_to_2,2_if_x_[j,l,h,z,i]=1: - 1e+06 y[2,1,1]
   - 1e+06 y[2,2,1] - 1e+06 x[2,2,2,1] - s[2,1,1] + s[2,2,1]
   >= -2.999987e+06
 precedence_between_2,2_to_2,1_if_x_[j,l,h,z,i]=0: - 1e+06 y[2,1,1]
   - 1e+06 y[2,2,1] + 1e+06 x[2,2,2,1] + s[2,1,1] - s[2,2,1]
   >= -1.999984e+06
 start_time_domain_job0_stage0_machine1_constraint: s[0,0,1] >= 0
 initial_start_time_job0_stage0_machine1_constraint: - 2 y[0,0,1]
   + s[0,0,1] >= 0
 start_time_domain_job0_stage1_machine1_constraint: s[0,1,1] >= 0
 initial_start_time_job0_stage0_machine1_constraint: - y[0,1,1] + s[0,1,1]
   >= 0
 start_time_domain_job0_stage2_machine0_constraint: s[0,2,0] >= 0
 initial_start_time_job0_stage0_machine0_constraint: - y[0,2,0] + s[0,2,0]
   >= 0
 start_time_domain_job1_stage0_machine1_constraint: s[1,0,1] >= 0
 initial_start_time_job1_stage0_machine1_constraint: s[1,0,1] >= 0
 start_time_domain_job1_stage1_machine2_constraint: s[1,1,2] >= 0
 initial_start_time_job1_stage0_machine2_constraint: - 2 y[1,1,2]
   + s[1,1,2] >= 0
 start_time_domain_job1_stage2_machine1_constraint: s[1,2,1] >= 0
 initial_start_time_job1_stage0_machine1_constraint: s[1,2,1] >= 0
 start_time_domain_job2_stage0_machine1_constraint: s[2,0,1] >= 0
 initial_start_time_job2_stage0_machine1_constraint: - y[2,0,1] + s[2,0,1]
   >= 0
 start_time_domain_job2_stage1_machine1_constraint: s[2,1,1] >= 0
 initial_start_time_job2_stage0_machine1_constraint: - 2 y[2,1,1]
   + s[2,1,1] >= 0
 start_time_domain_job2_stage2_machine1_constraint: s[2,2,1] >= 0
 initial_start_time_job2_stage0_machine1_constraint: - y[2,2,1] + s[2,2,1]
   >= 0
 R88: - 3 y[0,1,1] + s[0,0,1] - s[0,1,1] >= 0
 R89: - 3 y[0,2,0] + s[0,1,1] - s[0,2,0] >= 0
 R90: - 3 y[1,1,2] + s[1,0,1] - s[1,1,2] >= 0
 R91: - 2 y[1,2,1] + s[1,1,2] - s[1,2,1] >= 0
 R92: - 3 y[2,1,1] + s[2,0,1] - s[2,1,1] >= 0
 R93: - 4 y[2,2,1] + s[2,0,1] - s[2,2,1] >= 0
 auxiliaryOF_constraint: 4 y[0,0,1] + s[0,0,1] - 1e+06 C100 >= -999991
 auxiliaryOF_constraint: 4 y[0,0,1] + s[0,0,1] - 1e+06 C100 <= 9
 auxiliaryOF_constraint: 4 y[1,0,1] + s[1,0,1] - 1e+06 C101 >= -999991
 auxiliaryOF_constraint: 4 y[1,0,1] + s[1,0,1] - 1e+06 C101 <= 9
 auxiliaryOF_constraint: 4 y[2,0,1] + s[2,0,1] - 1e+06 C102 >= -999994
 auxiliaryOF_constraint: 4 y[2,0,1] + s[2,0,1] - 1e+06 C102 <= 6
 OF_constraint: Z_FO + 5 C100 + 5 C101 + 2 C102 + [ - s[0,0,1] * C100
   - s[1,0,1] * C101 - s[2,0,1] * C102 ] >= 0
Bounds
Binaries
 y[0,0,1] y[0,1,1] y[0,2,0] y[1,0,1] y[1,1,2] y[1,2,1] y[2,0,1] y[2,1,1]
 y[2,2,1] x[0,0,0,0] x[0,0,0,1] x[0,0,0,2] x[0,0,1,0] x[0,0,1,1] x[0,0,1,2]
 x[0,0,2,0] x[0,0,2,1] x[0,0,2,2] x[0,1,0,0] x[0,1,0,1] x[0,1,0,2]
 x[0,1,1,0] x[0,1,1,1] x[0,1,1,2] x[0,1,2,0] x[0,1,2,1] x[0,1,2,2]
 x[0,2,0,0] x[0,2,0,1] x[0,2,0,2] x[0,2,1,0] x[0,2,1,1] x[0,2,1,2]
 x[0,2,2,0] x[0,2,2,1] x[0,2,2,2] x[1,0,0,0] x[1,0,0,1] x[1,0,0,2]
 x[1,0,1,0] x[1,0,1,1] x[1,0,1,2] x[1,0,2,0] x[1,0,2,1] x[1,0,2,2]
 x[1,1,0,0] x[1,1,0,1] x[1,1,0,2] x[1,1,1,0] x[1,1,1,1] x[1,1,1,2]
 x[1,1,2,0] x[1,1,2,1] x[1,1,2,2] x[1,2,0,0] x[1,2,0,1] x[1,2,0,2]
 x[1,2,1,0] x[1,2,1,1] x[1,2,1,2] x[1,2,2,0] x[1,2,2,1] x[1,2,2,2]
 x[2,0,0,0] x[2,0,0,1] x[2,0,0,2] x[2,0,1,0] x[2,0,1,1] x[2,0,1,2]
 x[2,0,2,0] x[2,0,2,1] x[2,0,2,2] x[2,1,0,0] x[2,1,0,1] x[2,1,0,2]
 x[2,1,1,0] x[2,1,1,1] x[2,1,1,2] x[2,1,2,0] x[2,1,2,1] x[2,1,2,2]
 x[2,2,0,0] x[2,2,0,1] x[2,2,0,2] x[2,2,1,0] x[2,2,1,1] x[2,2,1,2]
 x[2,2,2,0] x[2,2,2,1] x[2,2,2,2] C100 C101 C102
Generals
 Z_FO
End
