results-heuristic-start/mps/BA_06_deadline.mps
NAME JobShopModel
ROWS
 N  OBJ
 E  c0      
 E  c1      
 E  c2      
 E  c3      
 E  c4      
 E  c5      
 E  c6      
 E  c7      
 E  c8      
 L  c9      
 L  c10     
 L  c11     
 L  c12     
 L  c13     
 L  c14     
 L  c15     
 L  c16     
 L  c17     
 G  c18     
 G  c19     
 G  c20     
 G  c21     
 G  c22     
 G  c23     
 G  c24     
 G  c25     
 G  c26     
 G  c27     
 G  c28     
 G  c29     
 G  c30     
 G  c31     
 G  c32     
 G  c33     
 G  c34     
 G  c35     
 G  c36     
 G  c37     
 G  c38     
 G  c39     
 G  c40     
 G  c41     
 G  c42     
 G  c43     
 G  c44     
 G  c45     
 G  c46     
 G  c47     
 G  c48     
 G  c49     
 G  c50     
 G  c51     
 G  c52     
 G  c53     
 G  c54     
 G  c55     
 G  c56     
 G  c57     
 G  c58     
 G  c59     
 G  c60     
 G  c61     
 G  c62     
 G  c63     
 G  c64     
 G  c65     
 G  c66     
 G  c67     
 G  c68     
 G  c69     
 G  c70     
 G  c71     
 G  c72     
 G  c73     
 G  c74     
 G  c75     
 G  c76     
 G  c77     
 G  c78     
 G  c79     
 G  c80     
 G  c81     
 G  c82     
 G  c83     
 G  c84     
 G  c85     
 G  c86     
 G  c87     
 G  c88     
 G  c89     
 G  c90     
 G  c91     
 G  c92     
 G  c93     
 G  c94     
 L  c95     
 G  c96     
 L  c97     
 G  c98     
 L  c99     
 G  OF_constraint
COLUMNS
    MARKER    'MARKER'                 'INTORG'
    y[0,0,1]  c0        1
    y[0,0,1]  c9        -1000000
    y[0,0,1]  c18       -1000000
    y[0,0,1]  c19       -1000000
    y[0,0,1]  c20       -1000000
    y[0,0,1]  c21       -1000000
    y[0,0,1]  c22       -1000000
    y[0,0,1]  c23       -1000000
    y[0,0,1]  c24       -1000000
    y[0,0,1]  c25       -1000000
    y[0,0,1]  c26       -1000000
    y[0,0,1]  c27       -1000000
    y[0,0,1]  c28       -1000000
    y[0,0,1]  c29       -1000000
    y[0,0,1]  c30       -1000000
    y[0,0,1]  c31       -1000000
    y[0,0,1]  c71       -2
    y[0,0,1]  c94       4
    y[0,0,1]  c95       4
    y[0,1,1]  c1        1
    y[0,1,1]  c10       -1000000
    y[0,1,1]  c18       -1000000
    y[0,1,1]  c19       -1000000
    y[0,1,1]  c30       -1000000
    y[0,1,1]  c31       -1000000
    y[0,1,1]  c32       -1000000
    y[0,1,1]  c33       -1000000
    y[0,1,1]  c34       -1000000
    y[0,1,1]  c35       -1000000
    y[0,1,1]  c36       -1000000
    y[0,1,1]  c37       -1000000
    y[0,1,1]  c38       -1000000
    y[0,1,1]  c39       -1000000
    y[0,1,1]  c40       -1000000
    y[0,1,1]  c41       -1000000
    y[0,1,1]  c73       -1
    y[0,1,1]  c88       -3
    y[0,2,0]  c2        1
    y[0,2,0]  c11       -1000000
    y[0,2,0]  c75       -1
    y[0,2,0]  c89       -3
    y[1,0,1]  c3        1
    y[1,0,1]  c12       -1000000
    y[1,0,1]  c20       -1000000
    y[1,0,1]  c21       -1000000
    y[1,0,1]  c32       -1000000
    y[1,0,1]  c33       -1000000
    y[1,0,1]  c42       -1000000
    y[1,0,1]  c43       -1000000
    y[1,0,1]  c44       -1000000
    y[1,0,1]  c45       -1000000
    y[1,0,1]  c46       -1000000
    y[1,0,1]  c47       -1000000
    y[1,0,1]  c48       -1000000
    y[1,0,1]  c49       -1000000
    y[1,0,1]  c50       -1000000
    y[1,0,1]  c51       -1000000
    y[1,0,1]  c96       4
    y[1,0,1]  c97       4
    y[1,1,2]  c4        1
    y[1,1,2]  c13       -1000000
    y[1,1,2]  c79       -2
    y[1,1,2]  c90       -3
    y[1,2,1]  c5        1
    y[1,2,1]  c14       -1000000
    y[1,2,1]  c22       -1000000
    y[1,2,1]  c23       -1000000
    y[1,2,1]  c34       -1000000
    y[1,2,1]  c35       -1000000
    y[1,2,1]  c42       -1000000
    y[1,2,1]  c43       -1000000
    y[1,2,1]  c50       -1000000
    y[1,2,1]  c51       -1000000
    y[1,2,1]  c52       -1000000
    y[1,2,1]  c53       -1000000
    y[1,2,1]  c54       -1000000
    y[1,2,1]  c55       -1000000
    y[1,2,1]  c56       -1000000
    y[1,2,1]  c57       -1000000
    y[1,2,1]  c91       -2
    y[2,0,1]  c6        1
    y[2,0,1]  c15       -1000000
    y[2,0,1]  c24       -1000000
    y[2,0,1]  c25       -1000000
    y[2,0,1]  c36       -1000000
    y[2,0,1]  c37       -1000000
    y[2,0,1]  c44       -1000000
    y[2,0,1]  c45       -1000000
    y[2,0,1]  c52       -1000000
    y[2,0,1]  c53       -1000000
    y[2,0,1]  c58       -1000000
    y[2,0,1]  c59       -1000000
    y[2,0,1]  c60       -1000000
    y[2,0,1]  c61       -1000000
    y[2,0,1]  c62       -1000000
    y[2,0,1]  c63       -1000000
    y[2,0,1]  c66       -1000000
    y[2,0,1]  c67       -1000000
    y[2,0,1]  c83       -1
    y[2,0,1]  c98       4
    y[2,0,1]  c99       4
    y[2,1,1]  c7        1
    y[2,1,1]  c16       -1000000
    y[2,1,1]  c26       -1000000
    y[2,1,1]  c27       -1000000
    y[2,1,1]  c38       -1000000
    y[2,1,1]  c39       -1000000
    y[2,1,1]  c46       -1000000
    y[2,1,1]  c47       -1000000
    y[2,1,1]  c54       -1000000
    y[2,1,1]  c55       -1000000
    y[2,1,1]  c58       -1000000
    y[2,1,1]  c59       -1000000
    y[2,1,1]  c62       -1000000
    y[2,1,1]  c63       -1000000
    y[2,1,1]  c64       -1000000
    y[2,1,1]  c65       -1000000
    y[2,1,1]  c68       -1000000
    y[2,1,1]  c69       -1000000
    y[2,1,1]  c85       -2
    y[2,1,1]  c92       -3
    y[2,2,1]  c8        1
    y[2,2,1]  c17       -1000000
    y[2,2,1]  c28       -1000000
    y[2,2,1]  c29       -1000000
    y[2,2,1]  c40       -1000000
    y[2,2,1]  c41       -1000000
    y[2,2,1]  c48       -1000000
    y[2,2,1]  c49       -1000000
    y[2,2,1]  c56       -1000000
    y[2,2,1]  c57       -1000000
    y[2,2,1]  c60       -1000000
    y[2,2,1]  c61       -1000000
    y[2,2,1]  c64       -1000000
    y[2,2,1]  c65       -1000000
    y[2,2,1]  c66       -1000000
    y[2,2,1]  c67       -1000000
    y[2,2,1]  c68       -1000000
    y[2,2,1]  c69       -1000000
    y[2,2,1]  c87       -1
    y[2,2,1]  c93       -4
    x[0,0,0,0]  OBJ       0
    x[0,0,0,1]  c18       -1000000
    x[0,0,0,1]  c19       1000000
    x[0,0,0,2]  OBJ       0
    x[0,0,1,0]  c20       -1000000
    x[0,0,1,0]  c21       1000000
    x[0,0,1,1]  OBJ       0
    x[0,0,1,2]  c22       -1000000
    x[0,0,1,2]  c23       1000000
    x[0,0,2,0]  c24       -1000000
    x[0,0,2,0]  c25       1000000
    x[0,0,2,1]  c26       -1000000
    x[0,0,2,1]  c27       1000000
    x[0,0,2,2]  c28       -1000000
    x[0,0,2,2]  c29       1000000
    x[0,1,0,0]  c30       -1000000
    x[0,1,0,0]  c31       1000000
    x[0,1,0,1]  OBJ       0
    x[0,1,0,2]  OBJ       0
    x[0,1,1,0]  c32       -1000000
    x[0,1,1,0]  c33       1000000
    x[0,1,1,1]  OBJ       0
    x[0,1,1,2]  c34       -1000000
    x[0,1,1,2]  c35       1000000
    x[0,1,2,0]  c36       -1000000
    x[0,1,2,0]  c37       1000000
    x[0,1,2,1]  c38       -1000000
    x[0,1,2,1]  c39       1000000
    x[0,1,2,2]  c40       -1000000
    x[0,1,2,2]  c41       1000000
    x[0,2,0,0]  OBJ       0
    x[0,2,0,1]  OBJ       0
    x[0,2,0,2]  OBJ       0
    x[0,2,1,0]  OBJ       0
    x[0,2,1,1]  OBJ       0
    x[0,2,1,2]  OBJ       0
    x[0,2,2,0]  OBJ       0
    x[0,2,2,1]  OBJ       0
    x[0,2,2,2]  OBJ       0
    x[1,0,0,0]  OBJ       0
    x[1,0,0,1]  OBJ       0
    x[1,0,0,2]  OBJ       0
    x[1,0,1,0]  OBJ       0
    x[1,0,1,1]  OBJ       0
    x[1,0,1,2]  c42       -1000000
    x[1,0,1,2]  c43       1000000
    x[1,0,2,0]  c44       -1000000
    x[1,0,2,0]  c45       1000000
    x[1,0,2,1]  c46       -1000000
    x[1,0,2,1]  c47       1000000
    x[1,0,2,2]  c48       -1000000
    x[1,0,2,2]  c49       1000000
    x[1,1,0,0]  OBJ       0
    x[1,1,0,1]  OBJ       0
    x[1,1,0,2]  OBJ       0
    x[1,1,1,0]  OBJ       0
    x[1,1,1,1]  OBJ       0
    x[1,1,1,2]  OBJ       0
    x[1,1,2,0]  OBJ       0
    x[1,1,2,1]  OBJ       0
    x[1,1,2,2]  OBJ       0
    x[1,2,0,0]  OBJ       0
    x[1,2,0,1]  OBJ       0
    x[1,2,0,2]  OBJ       0
    x[1,2,1,0]  c50       -1000000
    x[1,2,1,0]  c51       1000000
    x[1,2,1,1]  OBJ       0
    x[1,2,1,2]  OBJ       0
    x[1,2,2,0]  c52       -1000000
    x[1,2,2,0]  c53       1000000
    x[1,2,2,1]  c54       -1000000
    x[1,2,2,1]  c55       1000000
    x[1,2,2,2]  c56       -1000000
    x[1,2,2,2]  c57       1000000
    x[2,0,0,0]  OBJ       0
    x[2,0,0,1]  OBJ       0
    x[2,0,0,2]  OBJ       0
    x[2,0,1,0]  OBJ       0
    x[2,0,1,1]  OBJ       0
    x[2,0,1,2]  OBJ       0
    x[2,0,2,0]  OBJ       0
    x[2,0,2,1]  c58       -1000000
    x[2,0,2,1]  c59       1000000
    x[2,0,2,2]  c60       -1000000
    x[2,0,2,2]  c61       1000000
    x[2,1,0,0]  OBJ       0
    x[2,1,0,1]  OBJ       0
    x[2,1,0,2]  OBJ       0
    x[2,1,1,0]  OBJ       0
    x[2,1,1,1]  OBJ       0
    x[2,1,1,2]  OBJ       0
    x[2,1,2,0]  c62       -1000000
    x[2,1,2,0]  c63       1000000
    x[2,1,2,1]  OBJ       0
    x[2,1,2,2]  c64       -1000000
    x[2,1,2,2]  c65       1000000
    x[2,2,0,0]  OBJ       0
    x[2,2,0,1]  OBJ       0
    x[2,2,0,2]  OBJ       0
    x[2,2,1,0]  OBJ       0
    x[2,2,1,1]  OBJ       0
    x[2,2,1,2]  OBJ       0
    x[2,2,2,0]  c66       -1000000
    x[2,2,2,0]  c67       1000000
    x[2,2,2,1]  c68       -1000000
    x[2,2,2,1]  c69       1000000
    x[2,2,2,2]  OBJ       0
    MARKER    'MARKER'                 'INTEND'
    s[0,0,1]  c9        1
    s[0,0,1]  c18       1
    s[0,0,1]  c19       -1
    s[0,0,1]  c20       1
    s[0,0,1]  c21       -1
    s[0,0,1]  c22       1
    s[0,0,1]  c23       -1
    s[0,0,1]  c24       1
    s[0,0,1]  c25       -1
    s[0,0,1]  c26       1
    s[0,0,1]  c27       -1
    s[0,0,1]  c28       1
    s[0,0,1]  c29       -1
    s[0,0,1]  c30       -1
    s[0,0,1]  c31       1
    s[0,0,1]  c70       1
    s[0,0,1]  c71       1
    s[0,0,1]  c88       1
    s[0,0,1]  c94       1
    s[0,0,1]  c95       1
    s[0,1,1]  c10       1
    s[0,1,1]  c18       -1
    s[0,1,1]  c19       1
    s[0,1,1]  c30       1
    s[0,1,1]  c31       -1
    s[0,1,1]  c32       1
    s[0,1,1]  c33       -1
    s[0,1,1]  c34       1
    s[0,1,1]  c35       -1
    s[0,1,1]  c36       1
    s[0,1,1]  c37       -1
    s[0,1,1]  c38       1
    s[0,1,1]  c39       -1
    s[0,1,1]  c40       1
    s[0,1,1]  c41       -1
    s[0,1,1]  c72       1
    s[0,1,1]  c73       1
    s[0,1,1]  c88       -1
    s[0,1,1]  c89       1
    s[0,2,0]  c11       1
    s[0,2,0]  c74       1
    s[0,2,0]  c75       1
    s[0,2,0]  c89       -1
    s[1,0,1]  c12       1
    s[1,0,1]  c20       -1
    s[1,0,1]  c21       1
    s[1,0,1]  c32       -1
    s[1,0,1]  c33       1
    s[1,0,1]  c42       1
    s[1,0,1]  c43       -1
    s[1,0,1]  c44       1
    s[1,0,1]  c45       -1
    s[1,0,1]  c46       1
    s[1,0,1]  c47       -1
    s[1,0,1]  c48       1
    s[1,0,1]  c49       -1
    s[1,0,1]  c50       -1
    s[1,0,1]  c51       1
    s[1,0,1]  c76       1
    s[1,0,1]  c77       1
    s[1,0,1]  c90       1
    s[1,0,1]  c96       1
    s[1,0,1]  c97       1
    s[1,1,2]  c13       1
    s[1,1,2]  c78       1
    s[1,1,2]  c79       1
    s[1,1,2]  c90       -1
    s[1,1,2]  c91       1
    s[1,2,1]  c14       1
    s[1,2,1]  c22       -1
    s[1,2,1]  c23       1
    s[1,2,1]  c34       -1
    s[1,2,1]  c35       1
    s[1,2,1]  c42       -1
    s[1,2,1]  c43       1
    s[1,2,1]  c50       1
    s[1,2,1]  c51       -1
    s[1,2,1]  c52       1
    s[1,2,1]  c53       -1
    s[1,2,1]  c54       1
    s[1,2,1]  c55       -1
    s[1,2,1]  c56       1
    s[1,2,1]  c57       -1
    s[1,2,1]  c80       1
    s[1,2,1]  c81       1
    s[1,2,1]  c91       -1
    s[2,0,1]  c15       1
    s[2,0,1]  c24       -1
    s[2,0,1]  c25       1
    s[2,0,1]  c36       -1
    s[2,0,1]  c37       1
    s[2,0,1]  c44       -1
    s[2,0,1]  c45       1
    s[2,0,1]  c52       -1
    s[2,0,1]  c53       1
    s[2,0,1]  c58       1
    s[2,0,1]  c59       -1
    s[2,0,1]  c60       1
    s[2,0,1]  c61       -1
    s[2,0,1]  c62       -1
    s[2,0,1]  c63       1
    s[2,0,1]  c66       -1
    s[2,0,1]  c67       1
    s[2,0,1]  c82       1
    s[2,0,1]  c83       1
    s[2,0,1]  c92       1
    s[2,0,1]  c93       1
    s[2,0,1]  c98       1
    s[2,0,1]  c99       1
    s[2,1,1]  c16       1
    s[2,1,1]  c26       -1
    s[2,1,1]  c27       1
    s[2,1,1]  c38       -1
    s[2,1,1]  c39       1
    s[2,1,1]  c46       -1
    s[2,1,1]  c47       1
    s[2,1,1]  c54       -1
    s[2,1,1]  c55       1
    s[2,1,1]  c58       -1
    s[2,1,1]  c59       1
    s[2,1,1]  c62       1
    s[2,1,1]  c63       -1
    s[2,1,1]  c64       1
    s[2,1,1]  c65       -1
    s[2,1,1]  c68       -1
    s[2,1,1]  c69       1
    s[2,1,1]  c84       1
    s[2,1,1]  c85       1
    s[2,1,1]  c92       -1
    s[2,2,1]  c17       1
    s[2,2,1]  c28       -1
    s[2,2,1]  c29       1
    s[2,2,1]  c40       -1
    s[2,2,1]  c41       1
    s[2,2,1]  c48       -1
    s[2,2,1]  c49       1
    s[2,2,1]  c56       -1
    s[2,2,1]  c57       1
    s[2,2,1]  c60       -1
    s[2,2,1]  c61       1
    s[2,2,1]  c64       -1
    s[2,2,1]  c65       1
    s[2,2,1]  c66       1
    s[2,2,1]  c67       -1
    s[2,2,1]  c68       1
    s[2,2,1]  c69       -1
    s[2,2,1]  c86       1
    s[2,2,1]  c87       1
    s[2,2,1]  c93       -1
    MARKER    'MARKER'                 'INTORG'
    Z_FO      OBJ       1
    Z_FO      OF_constraint  1
    C100      c94       -1000000
    C100      c95       -1000000
    C100      OF_constraint  5
    C101      c96       -1000000
    C101      c97       -1000000
    C101      OF_constraint  5
    C102      c98       -1000000
    C102      c99       -1000000
    C102      OF_constraint  2
    MARKER    'MARKER'                 'INTEND'
RHS
    RHS1      c0        1
    RHS1      c1        1
    RHS1      c2        1
    RHS1      c3        1
    RHS1      c4        1
    RHS1      c5        1
    RHS1      c6        1
    RHS1      c7        1
    RHS1      c8        1
    RHS1      c18       -2999985
    RHS1      c19       -1999992
    RHS1      c20       -2999984
    RHS1      c21       -1999987
    RHS1      c22       -2999986
    RHS1      c23       -1999986
    RHS1      c24       -2999992
    RHS1      c25       -1999987
    RHS1      c26       -2999995
    RHS1      c27       -1999984
    RHS1      c28       -2999988
    RHS1      c29       -1999988
    RHS1      c30       -2999992
    RHS1      c31       -1999985
    RHS1      c32       -2999994
    RHS1      c33       -1999993
    RHS1      c34       -2999986
    RHS1      c35       -1999995
    RHS1      c36       -2999984
    RHS1      c37       -1999981
    RHS1      c38       -2999993
    RHS1      c39       -1999993
    RHS1      c40       -2999981
    RHS1      c41       -1999985
    RHS1      c42       -2999994
    RHS1      c43       -1999992
    RHS1      c44       -2999986
    RHS1      c45       -1999981
    RHS1      c46       -2999995
    RHS1      c47       -1999994
    RHS1      c48       -2999981
    RHS1      c49       -1999984
    RHS1      c50       -2999992
    RHS1      c51       -1999994
    RHS1      c52       -2999990
    RHS1      c53       -1999990
    RHS1      c54       -2999977
    RHS1      c55       -1999978
    RHS1      c56       -2999984
    RHS1      c57       -1999989
    RHS1      c58       -2999981
    RHS1      c59       -1999992
    RHS1      c60       -2999990
    RHS1      c61       -1999987
    RHS1      c62       -2999992
    RHS1      c63       -1999981
    RHS1      c64       -2999984
    RHS1      c65       -1999987
    RHS1      c66       -2999987
    RHS1      c67       -1999990
    RHS1      c68       -2999987
    RHS1      c69       -1999984
    RHS1      c94       -999991
    RHS1      c95       9
    RHS1      c96       -999991
    RHS1      c97       9
    RHS1      c98       -999994
    RHS1      c99       6
BOUNDS
 BV BND1      y[0,0,1]
 BV BND1      y[0,1,1]
 BV BND1      y[0,2,0]
 BV BND1      y[1,0,1]
 BV BND1      y[1,1,2]
 BV BND1      y[1,2,1]
 BV BND1      y[2,0,1]
 BV BND1      y[2,1,1]
 BV BND1      y[2,2,1]
 BV BND1      x[0,0,0,0]
 BV BND1      x[0,0,0,1]
 BV BND1      x[0,0,0,2]
 BV BND1      x[0,0,1,0]
 BV BND1      x[0,0,1,1]
 BV BND1      x[0,0,1,2]
 BV BND1      x[0,0,2,0]
 BV BND1      x[0,0,2,1]
 BV BND1      x[0,0,2,2]
 BV BND1      x[0,1,0,0]
 BV BND1      x[0,1,0,1]
 BV BND1      x[0,1,0,2]
 BV BND1      x[0,1,1,0]
 BV BND1      x[0,1,1,1]
 BV BND1      x[0,1,1,2]
 BV BND1      x[0,1,2,0]
 BV BND1      x[0,1,2,1]
 BV BND1      x[0,1,2,2]
 BV BND1      x[0,2,0,0]
 BV BND1      x[0,2,0,1]
 BV BND1      x[0,2,0,2]
 BV BND1      x[0,2,1,0]
 BV BND1      x[0,2,1,1]
 BV BND1      x[0,2,1,2]
 BV BND1      x[0,2,2,0]
 BV BND1      x[0,2,2,1]
 BV BND1      x[0,2,2,2]
 BV BND1      x[1,0,0,0]
 BV BND1      x[1,0,0,1]
 BV BND1      x[1,0,0,2]
 BV BND1      x[1,0,1,0]
 BV BND1      x[1,0,1,1]
 BV BND1      x[1,0,1,2]
 BV BND1      x[1,0,2,0]
 BV BND1      x[1,0,2,1]
 BV BND1      x[1,0,2,2]
 BV BND1      x[1,1,0,0]
 BV BND1      x[1,1,0,1]
 BV BND1      x[1,1,0,2]
 BV BND1      x[1,1,1,0]
 BV BND1      x[1,1,1,1]
 BV BND1      x[1,1,1,2]
 BV BND1      x[1,1,2,0]
 BV BND1      x[1,1,2,1]
 BV BND1      x[1,1,2,2]
 BV BND1      x[1,2,0,0]
 BV BND1      x[1,2,0,1]
 BV BND1      x[1,2,0,2]
 BV BND1      x[1,2,1,0]
 BV BND1      x[1,2,1,1]
 BV BND1      x[1,2,1,2]
 BV BND1      x[1,2,2,0]
 BV BND1      x[1,2,2,1]
 BV BND1      x[1,2,2,2]
 BV BND1      x[2,0,0,0]
 BV BND1      x[2,0,0,1]
 BV BND1      x[2,0,0,2]
 BV BND1      x[2,0,1,0]
 BV BND1      x[2,0,1,1]
 BV BND1      x[2,0,1,2]
 BV BND1      x[2,0,2,0]
 BV BND1      x[2,0,2,1]
 BV BND1      x[2,0,2,2]
 BV BND1      x[2,1,0,0]
 BV BND1      x[2,1,0,1]
 BV BND1      x[2,1,0,2]
 BV BND1      x[2,1,1,0]
 BV BND1      x[2,1,1,1]
 BV BND1      x[2,1,1,2]
 BV BND1      x[2,1,2,0]
 BV BND1      x[2,1,2,1]
 BV BND1      x[2,1,2,2]
 BV BND1      x[2,2,0,0]
 BV BND1      x[2,2,0,1]
 BV BND1      x[2,2,0,2]
 BV BND1      x[2,2,1,0]
 BV BND1      x[2,2,1,1]
 BV BND1      x[2,2,1,2]
 BV BND1      x[2,2,2,0]
 BV BND1      x[2,2,2,1]
 BV BND1      x[2,2,2,2]
 LI BND1      Z_FO      0
 BV BND1      C100    
 BV BND1      C101    
 BV BND1      C102    
QCMATRIX   OF_constraint
    s[0,0,1]  C100      -0.5
    C100      s[0,0,1]  -0.5
    s[1,0,1]  C101      -0.5
    C101      s[1,0,1]  -0.5
    s[2,0,1]  C102      -0.5
    C102      s[2,0,1]  -0.5
ENDATA
