results-heuristic-start/log/BA_06_deadline.log

Gurobi 10.0.1 (win64) logging started Sat Sep  9 01:38:36 2023

Set parameter LogFile to value "results-heuristic-start//log/BA_06_deadline.log"
Gurobi Optimizer version 10.0.1 build v10.0.1rc0 (win64)

CPU model: AMD Ryzen 7 3700X 8-Core Processor, instruction set [SSE2|AVX|AVX2]
Thread count: 8 physical cores, 16 logical processors, using up to 16 threads

Optimize a model with 100 rows, 103 columns and 348 nonzeros
Model fingerprint: 0x5c3a93d8
Model has 1 quadratic constraint
Variable types: 9 continuous, 94 integer (93 binary)
Coefficient statistics:
  Matrix range     [1e+00, 1e+06]
  QMatrix range    [1e+00, 1e+00]
  QLMatrix range   [1e+00, 5e+00]
  Objective range  [1e+00, 1e+00]
  Bounds range     [1e+00, 1e+00]
  RHS range        [1e+00, 3e+06]

User MIP start produced solution with objective 1031 (0.00s)
Loaded user MIP start with objective 1031

Presolve removed 55 rows and 77 columns
Presolve time: 0.00s
Presolved: 45 rows, 26 columns, 128 nonzeros
Variable types: 7 continuous, 19 integer (18 binary)
Found heuristic solution: objective 1030.0000000

Root relaxation: objective 3.800000e+01, 15 iterations, 0.00 seconds (0.00 work units)

    Nodes    |    Current Node    |     Objective Bounds      |     Work
 Expl Unexpl |  Obj  Depth IntInf | Incumbent    BestBd   Gap | It/Node Time

     0     0   38.00000    0    8 1030.00000   38.00000  96.3%     -    0s
H    0     0                     112.0000000   54.00000  51.8%     -    0s
H    0     0                     104.0000000   54.00000  48.1%     -    0s
H    0     0                      74.0000000   54.00000  27.0%     -    0s

Cutting planes:
  Learned: 1
  Implied bound: 5
  Relax-and-lift: 3

Explored 1 nodes (15 simplex iterations) in 0.00 seconds (0.00 work units)
Thread count was 16 (of 16 available processors)

Solution count 6: 74 74 104 ... 1031

Optimal solution found (tolerance 1.00e-04)
Best objective 7.400000000000e+01, best bound 7.400000000000e+01, gap 0.0000%
Warning: constraint name "precedence between 0,1 to 0,0 if x_[j,l,h,z,i]=1" has a space
Warning: constraint name "precedence between 0,1 to 0,0 if x_[j,l,h,z,i]=1" has a space
Warning: default constraint names used to write mps file
